Quantum-Cryptanalysis/instances/samples/hf_n32/hf_n32_cnf07.cnf
c Parameters to produce the formula :
c key 1 -2 -3 -4 5 -6 7 -8 9 -10 11 -12 13 -14 15 16 -17 18 -19 20 -21 -22 -23 -24 -25 26 27 -28 -29 30 -31 -32
c plaintext -1 -2 3 -4 5 -6 7 -8 -9 -10 -11 -12 -13 -14 -15 16
c ciphertext -1 2 -3 4 -5 6 7 -8 -9 10 -11 -12 13 -14 15 16
c 
p cnf 32 220
-15 24 13 16 0
-28 -13 15 14 -16 0
30 8 -5 -7 6 0
4 3 25 1 0
7 8 26 6 5 0
3 -2 4 -1 -29 0
-7 6 18 5 0
-16 -14 -13 28 0
10 11 -23 -12 -9 0
-28 16 -15 14 13 0
-3 1 4 -21 2 0
7 -8 -5 26 6 0
2 -3 4 17 0
-4 1 17 -2 0
-30 7 -8 -6 0
7 -26 8 -6 0
-15 -16 28 13 0
-14 -13 16 -15 20 0
-20 -16 14 13 0
-11 -23 -10 12 9 0
30 -8 -6 -7 5 0
6 8 -5 18 0
8 26 -7 6 5 0
8 -5 26 -7 6 0
7 -26 -6 -5 0
27 10 11 -9 12 0
-4 3 -2 -21 -1 0
-3 -4 -2 -25 -1 0
-14 15 13 -32 -16 0
-15 24 14 16 0
7 -8 6 -18 5 0
-7 22 -6 5 0
-11 10 -23 -9 12 0
-4 3 2 21 0
-7 22 8 -6 0
-7 -30 8 5 0
7 -26 8 -5 0
-14 -28 -13 16 15 0
-11 10 -23 12 9 0
-3 -25 4 1 2 0
6 7 22 -8 0
3 4 -21 2 -1 0
-27 -12 -9 10 0
7 -8 -6 -18 5 0
7 8 -6 18 5 0
4 3 25 -2 0
22 8 -6 5 0
-4 3 -17 -2 -1 0
7 8 -5 -6 -22 0
-14 -15 13 -32 -16 0
-7 -8 -26 6 0
-1 21 4 -2 0
-10 -12 31 -11 0
-14 -15 13 -24 -16 0
7 8 6 -22 5 0
-30 -8 -5 0
-3 -2 -25 4 1 0
15 24 -13 -16 0
30 7 8 -6 5 0
27 11 -10 -12 9 0
-20 15 -13 16 0
-8 -6 26 -7 5 0
-7 -8 -6 18 0
-11 -10 -12 -9 -19 0
-30 7 6 -5 0
-13 16 -15 20 14 0
-14 -13 16 -15 -24 0
30 7 -8 6 5 0
7 8 -5 6 -22 0
7 -8 -5 6 -18 0
27 -11 -10 -12 -9 0
-26 8 -6 5 0
19 -10 -12 11 0
16 -15 20 14 13 0
11 -23 -10 -12 9 0
-3 -1 21 -2 0
7 22 -8 -5 0
19 -11 -10 -9 12 0
30 8 -5 -6 -7 0
-11 23 -12 9 0
-14 -13 -15 -32 -16 0
29 -3 -1 4 0
27 11 -10 12 9 0
-8 -5 -7 -18 6 0
19 10 11 -9 0
-27 -11 12 9 0
-10 23 11 12 0
-14 -15 13 20 -16 0
27 10 -11 -9 12 0
15 14 28 16 0
2 -4 25 -1 0
-7 8 6 18 0
-3 -4 -2 -25 1 0
-3 -25 4 -1 2 0
-27 -12 11 10 0
27 10 11 12 9 0
-14 15 -13 16 -32 0
11 -31 -10 -12 -9 0
4 -1 -2 25 0
3 -2 1 4 -21 0
-15 -14 28 13 0
8 -6 -7 -18 5 0
-4 3 1 21 0
23 -11 -12 10 0
-14 15 24 -13 0
3 -17 4 -1 2 0
-14 -13 15 20 -16 0
27 10 -11 -12 9 0
-3 -4 25 2 0
-15 -16 -14 28 0
3 -17 -2 1 4 0
-11 10 -12 9 -19 0
-10 23 11 -9 0
27 11 -10 -12 -9 0
31 -12 9 0
3 4 -1 2 -29 0
-3 -4 -2 -1 -29 0
-11 10 -31 -12 -9 0
-8 -5 -7 -22 6 0
3 25 1 -2 0
7 8 6 -18 5 0
10 11 -31 -12 -9 0
-4 3 -17 1 2 0
-4 3 -17 -1 2 0
16 15 20 14 13 0
-14 15 24 -16 0
-15 32 14 13 0
-8 -5 -6 -7 -22 0
3 -2 4 -1 17 0
15 -13 16 -32 14 0
-28 13 15 14 -16 0
-14 -28 -13 16 -15 0
-15 -14 32 16 0
8 -5 -6 -7 26 0
-8 -5 26 -7 -6 0
-4 3 -1 2 -29 0
-4 3 -25 1 2 0
-14 -28 16 15 13 0
10 11 -23 12 9 0
-11 -23 -10 -12 -9 0
19 -10 -12 9 0
19 10 11 12 0
-3 -4 -21 2 -1 0
15 32 -13 -16 0
-13 -15 -32 14 -16 0
-3 -4 -2 1 -21 0
10 11 -23 -12 9 0
-3 -4 1 -17 2 0
-3 -1 21 4 0
15 13 -32 14 -16 0
-20 -14 13 16 0
30 -8 -7 6 5 0
-14 -13 -15 -20 -16 0
-3 -4 1 -21 2 0
3 -2 1 4 -29 0
-28 -13 -15 14 -16 0
11 -10 -9 12 -19 0
-13 16 15 -24 14 0
-13 16 -15 -32 14 0
8 -5 -6 -7 -18 0
-9 11 12 31 0
-20 15 14 -16 0
29 3 2 1 0
3 1 4 -21 2 0
-3 1 4 2 -29 0
-3 -4 -1 2 -29 0
-13 -15 -24 14 -16 0
30 7 8 6 5 0
-20 15 -14 16 0
29 -4 3 -2 0
-27 -11 -10 9 0
-3 -2 -17 4 -1 0
16 15 -24 14 13 0
-13 14 28 16 0
-20 15 14 -13 0
-3 -4 -2 17 0
-7 22 8 5 0
7 8 -5 -6 -18 0
19 -12 11 -9 0
-3 -1 -4 17 0
-8 -7 -22 6 5 0
-10 23 -9 12 0
30 7 8 -5 -6 0
11 -10 12 9 -19 0
8 -5 -7 -22 6 0
29 -4 1 0
-11 10 -12 -9 -19 0
10 11 -12 9 -19 0
-11 10 31 9 0
-15 13 -24 14 -16 0
-11 -10 12 9 -19 0
13 15 -24 14 -16 0
-27 -11 12 -10 0
3 -25 4 -1 2 0
-3 -2 -17 1 4 0
-3 -2 1 4 -29 0
-14 16 15 -24 13 0
-3 21 4 -2 0
-4 3 -2 -25 -1 0
-11 10 -9 12 -19 0
23 11 12 -9 0
-11 -31 -10 -9 12 0
-14 13 15 20 -16 0
2 1 4 17 0
-8 18 -6 -5 0
-3 -1 2 17 0
19 10 12 9 0
7 -8 -6 -22 5 0
-11 10 -31 -9 12 0
-14 -28 13 15 -16 0
10 11 -31 12 9 0
7 -8 -6 26 5 0
-13 -15 20 14 -16 0
32 13 16 0
-27 -10 -9 12 0
-7 -8 18 5 0
6 -8 -26 5 0
-11 -31 -10 12 9 0
24 -14 -13 -16 0
11 -31 -10 12 9 0